row=5;
column=5;
left=[5, 12, 0, 12, 0];
right=[0, 0, 0, 8, 0];
top=[5, 12, 7, 11, 0];
bottom=[0, 5, 0, 9, 0];
Board=[|0,0,0,0,0|0,0,0,0,0|0,0,0,0,0|0,0,0,0,0|0,0,0,0,0|]